&CONTROL
    title        = 'Si'
    calculation  = 'scf'
    restart_mode = 'from_scratch'
    pseudo_dir   = '/scratch/optpar01/inputs/qe'
    outdir       = './outdir'
    prefix       = 'Si'
    tprnfor      = .false.
    disk_io      =  'none'
/

&SYSTEM
    ibrav        = 1
    A            = 21.8781
    nat          = 512
    ntyp         = 1
    ecutwfc      = 30
    occupations  ='smearing'
    smearing     ='gaussian',
    degauss      = 0.001
/

&ELECTRONS
    diagonalization  = 'david'
    conv_thr         = 1.0D-10
    electron_maxstep = 20
/

ATOMIC_SPECIES
Si  27.976  Si.pbe-rrkj.UPF

ATOMIC_POSITIONS crystal
Si  0.062500000000   0.062500000000   0.062500000000   
Si  0.000000000000   0.125000000000   0.125000000000   
Si  0.062500000000   0.187500000000   0.187500000000   
Si  0.000000000000   0.000000000000   0.000000000000   
Si  0.187500000000   0.062500000000   0.187500000000   
Si  0.125000000000   0.125000000000   0.000000000000   
Si  0.187500000000   0.187500000000   0.062500000000   
Si  0.125000000000   0.000000000000   0.125000000000   
Si  0.062500000000   0.062500000000   0.312500000000   
Si  0.000000000000   0.125000000000   0.375000000000   
Si  0.062500000000   0.187500000000   0.437500000000   
Si  0.000000000000   0.000000000000   0.250000000000   
Si  0.187500000000   0.062500000000   0.437500000000   
Si  0.125000000000   0.125000000000   0.250000000000   
Si  0.187500000000   0.187500000000   0.312500000000   
Si  0.125000000000   0.000000000000   0.375000000000   
Si  0.062500000000   0.062500000000   0.562500000000   
Si  0.000000000000   0.125000000000   0.625000000000   
Si  0.062500000000   0.187500000000   0.687500000000   
Si  0.000000000000   0.000000000000   0.500000000000   
Si  0.187500000000   0.062500000000   0.687500000000   
Si  0.125000000000   0.125000000000   0.500000000000   
Si  0.187500000000   0.187500000000   0.562500000000   
Si  0.125000000000   0.000000000000   0.625000000000   
Si  0.062500000000   0.062500000000   0.812500000000   
Si  0.000000000000   0.125000000000   0.875000000000   
Si  0.062500000000   0.187500000000   0.937500000000   
Si  0.000000000000   0.000000000000   0.750000000000   
Si  0.187500000000   0.062500000000   0.937500000000   
Si  0.125000000000   0.125000000000   0.750000000000   
Si  0.187500000000   0.187500000000   0.812500000000   
Si  0.125000000000   0.000000000000   0.875000000000   
Si  0.062500000000   0.312500000000   0.062500000000   
Si  0.000000000000   0.375000000000   0.125000000000   
Si  0.062500000000   0.437500000000   0.187500000000   
Si  0.000000000000   0.250000000000   0.000000000000   
Si  0.187500000000   0.312500000000   0.187500000000   
Si  0.125000000000   0.375000000000   0.000000000000   
Si  0.187500000000   0.437500000000   0.062500000000   
Si  0.125000000000   0.250000000000   0.125000000000   
Si  0.062500000000   0.312500000000   0.312500000000   
Si  0.000000000000   0.375000000000   0.375000000000   
Si  0.062500000000   0.437500000000   0.437500000000   
Si  0.000000000000   0.250000000000   0.250000000000   
Si  0.187500000000   0.312500000000   0.437500000000   
Si  0.125000000000   0.375000000000   0.250000000000   
Si  0.187500000000   0.437500000000   0.312500000000   
Si  0.125000000000   0.250000000000   0.375000000000   
Si  0.062500000000   0.312500000000   0.562500000000   
Si  0.000000000000   0.375000000000   0.625000000000   
Si  0.062500000000   0.437500000000   0.687500000000   
Si  0.000000000000   0.250000000000   0.500000000000   
Si  0.187500000000   0.312500000000   0.687500000000   
Si  0.125000000000   0.375000000000   0.500000000000   
Si  0.187500000000   0.437500000000   0.562500000000   
Si  0.125000000000   0.250000000000   0.625000000000   
Si  0.062500000000   0.312500000000   0.812500000000   
Si  0.000000000000   0.375000000000   0.875000000000   
Si  0.062500000000   0.437500000000   0.937500000000   
Si  0.000000000000   0.250000000000   0.750000000000   
Si  0.187500000000   0.312500000000   0.937500000000   
Si  0.125000000000   0.375000000000   0.750000000000   
Si  0.187500000000   0.437500000000   0.812500000000   
Si  0.125000000000   0.250000000000   0.875000000000   
Si  0.062500000000   0.562500000000   0.062500000000   
Si  0.000000000000   0.625000000000   0.125000000000   
Si  0.062500000000   0.687500000000   0.187500000000   
Si  0.000000000000   0.500000000000   0.000000000000   
Si  0.187500000000   0.562500000000   0.187500000000   
Si  0.125000000000   0.625000000000   0.000000000000   
Si  0.187500000000   0.687500000000   0.062500000000   
Si  0.125000000000   0.500000000000   0.125000000000   
Si  0.062500000000   0.562500000000   0.312500000000   
Si  0.000000000000   0.625000000000   0.375000000000   
Si  0.062500000000   0.687500000000   0.437500000000   
Si  0.000000000000   0.500000000000   0.250000000000   
Si  0.187500000000   0.562500000000   0.437500000000   
Si  0.125000000000   0.625000000000   0.250000000000   
Si  0.187500000000   0.687500000000   0.312500000000   
Si  0.125000000000   0.500000000000   0.375000000000   
Si  0.062500000000   0.562500000000   0.562500000000   
Si  0.000000000000   0.625000000000   0.625000000000   
Si  0.062500000000   0.687500000000   0.687500000000   
Si  0.000000000000   0.500000000000   0.500000000000   
Si  0.187500000000   0.562500000000   0.687500000000   
Si  0.125000000000   0.625000000000   0.500000000000   
Si  0.187500000000   0.687500000000   0.562500000000   
Si  0.125000000000   0.500000000000   0.625000000000   
Si  0.062500000000   0.562500000000   0.812500000000   
Si  0.000000000000   0.625000000000   0.875000000000   
Si  0.062500000000   0.687500000000   0.937500000000   
Si  0.000000000000   0.500000000000   0.750000000000   
Si  0.187500000000   0.562500000000   0.937500000000   
Si  0.125000000000   0.625000000000   0.750000000000   
Si  0.187500000000   0.687500000000   0.812500000000   
Si  0.125000000000   0.500000000000   0.875000000000   
Si  0.062500000000   0.812500000000   0.062500000000   
Si  0.000000000000   0.875000000000   0.125000000000   
Si  0.062500000000   0.937500000000   0.187500000000   
Si  0.000000000000   0.750000000000   0.000000000000   
Si  0.187500000000   0.812500000000   0.187500000000   
Si  0.125000000000   0.875000000000   0.000000000000   
Si  0.187500000000   0.937500000000   0.062500000000   
Si  0.125000000000   0.750000000000   0.125000000000   
Si  0.062500000000   0.812500000000   0.312500000000   
Si  0.000000000000   0.875000000000   0.375000000000   
Si  0.062500000000   0.937500000000   0.437500000000   
Si  0.000000000000   0.750000000000   0.250000000000   
Si  0.187500000000   0.812500000000   0.437500000000   
Si  0.125000000000   0.875000000000   0.250000000000   
Si  0.187500000000   0.937500000000   0.312500000000   
Si  0.125000000000   0.750000000000   0.375000000000   
Si  0.062500000000   0.812500000000   0.562500000000   
Si  0.000000000000   0.875000000000   0.625000000000   
Si  0.062500000000   0.937500000000   0.687500000000   
Si  0.000000000000   0.750000000000   0.500000000000   
Si  0.187500000000   0.812500000000   0.687500000000   
Si  0.125000000000   0.875000000000   0.500000000000   
Si  0.187500000000   0.937500000000   0.562500000000   
Si  0.125000000000   0.750000000000   0.625000000000   
Si  0.062500000000   0.812500000000   0.812500000000   
Si  0.000000000000   0.875000000000   0.875000000000   
Si  0.062500000000   0.937500000000   0.937500000000   
Si  0.000000000000   0.750000000000   0.750000000000   
Si  0.187500000000   0.812500000000   0.937500000000   
Si  0.125000000000   0.875000000000   0.750000000000   
Si  0.187500000000   0.937500000000   0.812500000000   
Si  0.125000000000   0.750000000000   0.875000000000   
Si  0.312500000000   0.062500000000   0.062500000000   
Si  0.250000000000   0.125000000000   0.125000000000   
Si  0.312500000000   0.187500000000   0.187500000000   
Si  0.250000000000   0.000000000000   0.000000000000   
Si  0.437500000000   0.062500000000   0.187500000000   
Si  0.375000000000   0.125000000000   0.000000000000   
Si  0.437500000000   0.187500000000   0.062500000000   
Si  0.375000000000   0.000000000000   0.125000000000   
Si  0.312500000000   0.062500000000   0.312500000000   
Si  0.250000000000   0.125000000000   0.375000000000   
Si  0.312500000000   0.187500000000   0.437500000000   
Si  0.250000000000   0.000000000000   0.250000000000   
Si  0.437500000000   0.062500000000   0.437500000000   
Si  0.375000000000   0.125000000000   0.250000000000   
Si  0.437500000000   0.187500000000   0.312500000000   
Si  0.375000000000   0.000000000000   0.375000000000   
Si  0.312500000000   0.062500000000   0.562500000000   
Si  0.250000000000   0.125000000000   0.625000000000   
Si  0.312500000000   0.187500000000   0.687500000000   
Si  0.250000000000   0.000000000000   0.500000000000   
Si  0.437500000000   0.062500000000   0.687500000000   
Si  0.375000000000   0.125000000000   0.500000000000   
Si  0.437500000000   0.187500000000   0.562500000000   
Si  0.375000000000   0.000000000000   0.625000000000   
Si  0.312500000000   0.062500000000   0.812500000000   
Si  0.250000000000   0.125000000000   0.875000000000   
Si  0.312500000000   0.187500000000   0.937500000000   
Si  0.250000000000   0.000000000000   0.750000000000   
Si  0.437500000000   0.062500000000   0.937500000000   
Si  0.375000000000   0.125000000000   0.750000000000   
Si  0.437500000000   0.187500000000   0.812500000000   
Si  0.375000000000   0.000000000000   0.875000000000   
Si  0.312500000000   0.312500000000   0.062500000000   
Si  0.250000000000   0.375000000000   0.125000000000   
Si  0.312500000000   0.437500000000   0.187500000000   
Si  0.250000000000   0.250000000000   0.000000000000   
Si  0.437500000000   0.312500000000   0.187500000000   
Si  0.375000000000   0.375000000000   0.000000000000   
Si  0.437500000000   0.437500000000   0.062500000000   
Si  0.375000000000   0.250000000000   0.125000000000   
Si  0.312500000000   0.312500000000   0.312500000000   
Si  0.250000000000   0.375000000000   0.375000000000   
Si  0.312500000000   0.437500000000   0.437500000000   
Si  0.250000000000   0.250000000000   0.250000000000   
Si  0.437500000000   0.312500000000   0.437500000000   
Si  0.375000000000   0.375000000000   0.250000000000   
Si  0.437500000000   0.437500000000   0.312500000000   
Si  0.375000000000   0.250000000000   0.375000000000   
Si  0.312500000000   0.312500000000   0.562500000000   
Si  0.250000000000   0.375000000000   0.625000000000   
Si  0.312500000000   0.437500000000   0.687500000000   
Si  0.250000000000   0.250000000000   0.500000000000   
Si  0.437500000000   0.312500000000   0.687500000000   
Si  0.375000000000   0.375000000000   0.500000000000   
Si  0.437500000000   0.437500000000   0.562500000000   
Si  0.375000000000   0.250000000000   0.625000000000   
Si  0.312500000000   0.312500000000   0.812500000000   
Si  0.250000000000   0.375000000000   0.875000000000   
Si  0.312500000000   0.437500000000   0.937500000000   
Si  0.250000000000   0.250000000000   0.750000000000   
Si  0.437500000000   0.312500000000   0.937500000000   
Si  0.375000000000   0.375000000000   0.750000000000   
Si  0.437500000000   0.437500000000   0.812500000000   
Si  0.375000000000   0.250000000000   0.875000000000   
Si  0.312500000000   0.562500000000   0.062500000000   
Si  0.250000000000   0.625000000000   0.125000000000   
Si  0.312500000000   0.687500000000   0.187500000000   
Si  0.250000000000   0.500000000000   0.000000000000   
Si  0.437500000000   0.562500000000   0.187500000000   
Si  0.375000000000   0.625000000000   0.000000000000   
Si  0.437500000000   0.687500000000   0.062500000000   
Si  0.375000000000   0.500000000000   0.125000000000   
Si  0.312500000000   0.562500000000   0.312500000000   
Si  0.250000000000   0.625000000000   0.375000000000   
Si  0.312500000000   0.687500000000   0.437500000000   
Si  0.250000000000   0.500000000000   0.250000000000   
Si  0.437500000000   0.562500000000   0.437500000000   
Si  0.375000000000   0.625000000000   0.250000000000   
Si  0.437500000000   0.687500000000   0.312500000000   
Si  0.375000000000   0.500000000000   0.375000000000   
Si  0.312500000000   0.562500000000   0.562500000000   
Si  0.250000000000   0.625000000000   0.625000000000   
Si  0.312500000000   0.687500000000   0.687500000000   
Si  0.250000000000   0.500000000000   0.500000000000   
Si  0.437500000000   0.562500000000   0.687500000000   
Si  0.375000000000   0.625000000000   0.500000000000   
Si  0.437500000000   0.687500000000   0.562500000000   
Si  0.375000000000   0.500000000000   0.625000000000   
Si  0.312500000000   0.562500000000   0.812500000000   
Si  0.250000000000   0.625000000000   0.875000000000   
Si  0.312500000000   0.687500000000   0.937500000000   
Si  0.250000000000   0.500000000000   0.750000000000   
Si  0.437500000000   0.562500000000   0.937500000000   
Si  0.375000000000   0.625000000000   0.750000000000   
Si  0.437500000000   0.687500000000   0.812500000000   
Si  0.375000000000   0.500000000000   0.875000000000   
Si  0.312500000000   0.812500000000   0.062500000000   
Si  0.250000000000   0.875000000000   0.125000000000   
Si  0.312500000000   0.937500000000   0.187500000000   
Si  0.250000000000   0.750000000000   0.000000000000   
Si  0.437500000000   0.812500000000   0.187500000000   
Si  0.375000000000   0.875000000000   0.000000000000   
Si  0.437500000000   0.937500000000   0.062500000000   
Si  0.375000000000   0.750000000000   0.125000000000   
Si  0.312500000000   0.812500000000   0.312500000000   
Si  0.250000000000   0.875000000000   0.375000000000   
Si  0.312500000000   0.937500000000   0.437500000000   
Si  0.250000000000   0.750000000000   0.250000000000   
Si  0.437500000000   0.812500000000   0.437500000000   
Si  0.375000000000   0.875000000000   0.250000000000   
Si  0.437500000000   0.937500000000   0.312500000000   
Si  0.375000000000   0.750000000000   0.375000000000   
Si  0.312500000000   0.812500000000   0.562500000000   
Si  0.250000000000   0.875000000000   0.625000000000   
Si  0.312500000000   0.937500000000   0.687500000000   
Si  0.250000000000   0.750000000000   0.500000000000   
Si  0.437500000000   0.812500000000   0.687500000000   
Si  0.375000000000   0.875000000000   0.500000000000   
Si  0.437500000000   0.937500000000   0.562500000000   
Si  0.375000000000   0.750000000000   0.625000000000   
Si  0.312500000000   0.812500000000   0.812500000000   
Si  0.250000000000   0.875000000000   0.875000000000   
Si  0.312500000000   0.937500000000   0.937500000000   
Si  0.250000000000   0.750000000000   0.750000000000   
Si  0.437500000000   0.812500000000   0.937500000000   
Si  0.375000000000   0.875000000000   0.750000000000   
Si  0.437500000000   0.937500000000   0.812500000000   
Si  0.375000000000   0.750000000000   0.875000000000   
Si  0.562500000000   0.062500000000   0.062500000000   
Si  0.500000000000   0.125000000000   0.125000000000   
Si  0.562500000000   0.187500000000   0.187500000000   
Si  0.500000000000   0.000000000000   0.000000000000   
Si  0.687500000000   0.062500000000   0.187500000000   
Si  0.625000000000   0.125000000000   0.000000000000   
Si  0.687500000000   0.187500000000   0.062500000000   
Si  0.625000000000   0.000000000000   0.125000000000   
Si  0.562500000000   0.062500000000   0.312500000000   
Si  0.500000000000   0.125000000000   0.375000000000   
Si  0.562500000000   0.187500000000   0.437500000000   
Si  0.500000000000   0.000000000000   0.250000000000   
Si  0.687500000000   0.062500000000   0.437500000000   
Si  0.625000000000   0.125000000000   0.250000000000   
Si  0.687500000000   0.187500000000   0.312500000000   
Si  0.625000000000   0.000000000000   0.375000000000   
Si  0.562500000000   0.062500000000   0.562500000000   
Si  0.500000000000   0.125000000000   0.625000000000   
Si  0.562500000000   0.187500000000   0.687500000000   
Si  0.500000000000   0.000000000000   0.500000000000   
Si  0.687500000000   0.062500000000   0.687500000000   
Si  0.625000000000   0.125000000000   0.500000000000   
Si  0.687500000000   0.187500000000   0.562500000000   
Si  0.625000000000   0.000000000000   0.625000000000   
Si  0.562500000000   0.062500000000   0.812500000000   
Si  0.500000000000   0.125000000000   0.875000000000   
Si  0.562500000000   0.187500000000   0.937500000000   
Si  0.500000000000   0.000000000000   0.750000000000   
Si  0.687500000000   0.062500000000   0.937500000000   
Si  0.625000000000   0.125000000000   0.750000000000   
Si  0.687500000000   0.187500000000   0.812500000000   
Si  0.625000000000   0.000000000000   0.875000000000   
Si  0.562500000000   0.312500000000   0.062500000000   
Si  0.500000000000   0.375000000000   0.125000000000   
Si  0.562500000000   0.437500000000   0.187500000000   
Si  0.500000000000   0.250000000000   0.000000000000   
Si  0.687500000000   0.312500000000   0.187500000000   
Si  0.625000000000   0.375000000000   0.000000000000   
Si  0.687500000000   0.437500000000   0.062500000000   
Si  0.625000000000   0.250000000000   0.125000000000   
Si  0.562500000000   0.312500000000   0.312500000000   
Si  0.500000000000   0.375000000000   0.375000000000   
Si  0.562500000000   0.437500000000   0.437500000000   
Si  0.500000000000   0.250000000000   0.250000000000   
Si  0.687500000000   0.312500000000   0.437500000000   
Si  0.625000000000   0.375000000000   0.250000000000   
Si  0.687500000000   0.437500000000   0.312500000000   
Si  0.625000000000   0.250000000000   0.375000000000   
Si  0.562500000000   0.312500000000   0.562500000000   
Si  0.500000000000   0.375000000000   0.625000000000   
Si  0.562500000000   0.437500000000   0.687500000000   
Si  0.500000000000   0.250000000000   0.500000000000   
Si  0.687500000000   0.312500000000   0.687500000000   
Si  0.625000000000   0.375000000000   0.500000000000   
Si  0.687500000000   0.437500000000   0.562500000000   
Si  0.625000000000   0.250000000000   0.625000000000   
Si  0.562500000000   0.312500000000   0.812500000000   
Si  0.500000000000   0.375000000000   0.875000000000   
Si  0.562500000000   0.437500000000   0.937500000000   
Si  0.500000000000   0.250000000000   0.750000000000   
Si  0.687500000000   0.312500000000   0.937500000000   
Si  0.625000000000   0.375000000000   0.750000000000   
Si  0.687500000000   0.437500000000   0.812500000000   
Si  0.625000000000   0.250000000000   0.875000000000   
Si  0.562500000000   0.562500000000   0.062500000000   
Si  0.500000000000   0.625000000000   0.125000000000   
Si  0.562500000000   0.687500000000   0.187500000000   
Si  0.500000000000   0.500000000000   0.000000000000   
Si  0.687500000000   0.562500000000   0.187500000000   
Si  0.625000000000   0.625000000000   0.000000000000   
Si  0.687500000000   0.687500000000   0.062500000000   
Si  0.625000000000   0.500000000000   0.125000000000   
Si  0.562500000000   0.562500000000   0.312500000000   
Si  0.500000000000   0.625000000000   0.375000000000   
Si  0.562500000000   0.687500000000   0.437500000000   
Si  0.500000000000   0.500000000000   0.250000000000   
Si  0.687500000000   0.562500000000   0.437500000000   
Si  0.625000000000   0.625000000000   0.250000000000   
Si  0.687500000000   0.687500000000   0.312500000000   
Si  0.625000000000   0.500000000000   0.375000000000   
Si  0.562500000000   0.562500000000   0.562500000000   
Si  0.500000000000   0.625000000000   0.625000000000   
Si  0.562500000000   0.687500000000   0.687500000000   
Si  0.500000000000   0.500000000000   0.500000000000   
Si  0.687500000000   0.562500000000   0.687500000000   
Si  0.625000000000   0.625000000000   0.500000000000   
Si  0.687500000000   0.687500000000   0.562500000000   
Si  0.625000000000   0.500000000000   0.625000000000   
Si  0.562500000000   0.562500000000   0.812500000000   
Si  0.500000000000   0.625000000000   0.875000000000   
Si  0.562500000000   0.687500000000   0.937500000000   
Si  0.500000000000   0.500000000000   0.750000000000   
Si  0.687500000000   0.562500000000   0.937500000000   
Si  0.625000000000   0.625000000000   0.750000000000   
Si  0.687500000000   0.687500000000   0.812500000000   
Si  0.625000000000   0.500000000000   0.875000000000   
Si  0.562500000000   0.812500000000   0.062500000000   
Si  0.500000000000   0.875000000000   0.125000000000   
Si  0.562500000000   0.937500000000   0.187500000000   
Si  0.500000000000   0.750000000000   0.000000000000   
Si  0.687500000000   0.812500000000   0.187500000000   
Si  0.625000000000   0.875000000000   0.000000000000   
Si  0.687500000000   0.937500000000   0.062500000000   
Si  0.625000000000   0.750000000000   0.125000000000   
Si  0.562500000000   0.812500000000   0.312500000000   
Si  0.500000000000   0.875000000000   0.375000000000   
Si  0.562500000000   0.937500000000   0.437500000000   
Si  0.500000000000   0.750000000000   0.250000000000   
Si  0.687500000000   0.812500000000   0.437500000000   
Si  0.625000000000   0.875000000000   0.250000000000   
Si  0.687500000000   0.937500000000   0.312500000000   
Si  0.625000000000   0.750000000000   0.375000000000   
Si  0.562500000000   0.812500000000   0.562500000000   
Si  0.500000000000   0.875000000000   0.625000000000   
Si  0.562500000000   0.937500000000   0.687500000000   
Si  0.500000000000   0.750000000000   0.500000000000   
Si  0.687500000000   0.812500000000   0.687500000000   
Si  0.625000000000   0.875000000000   0.500000000000   
Si  0.687500000000   0.937500000000   0.562500000000   
Si  0.625000000000   0.750000000000   0.625000000000   
Si  0.562500000000   0.812500000000   0.812500000000   
Si  0.500000000000   0.875000000000   0.875000000000   
Si  0.562500000000   0.937500000000   0.937500000000   
Si  0.500000000000   0.750000000000   0.750000000000   
Si  0.687500000000   0.812500000000   0.937500000000   
Si  0.625000000000   0.875000000000   0.750000000000   
Si  0.687500000000   0.937500000000   0.812500000000   
Si  0.625000000000   0.750000000000   0.875000000000   
Si  0.812500000000   0.062500000000   0.062500000000   
Si  0.750000000000   0.125000000000   0.125000000000   
Si  0.812500000000   0.187500000000   0.187500000000   
Si  0.750000000000   0.000000000000   0.000000000000   
Si  0.937500000000   0.062500000000   0.187500000000   
Si  0.875000000000   0.125000000000   0.000000000000   
Si  0.937500000000   0.187500000000   0.062500000000   
Si  0.875000000000   0.000000000000   0.125000000000   
Si  0.812500000000   0.062500000000   0.312500000000   
Si  0.750000000000   0.125000000000   0.375000000000   
Si  0.812500000000   0.187500000000   0.437500000000   
Si  0.750000000000   0.000000000000   0.250000000000   
Si  0.937500000000   0.062500000000   0.437500000000   
Si  0.875000000000   0.125000000000   0.250000000000   
Si  0.937500000000   0.187500000000   0.312500000000   
Si  0.875000000000   0.000000000000   0.375000000000   
Si  0.812500000000   0.062500000000   0.562500000000   
Si  0.750000000000   0.125000000000   0.625000000000   
Si  0.812500000000   0.187500000000   0.687500000000   
Si  0.750000000000   0.000000000000   0.500000000000   
Si  0.937500000000   0.062500000000   0.687500000000   
Si  0.875000000000   0.125000000000   0.500000000000   
Si  0.937500000000   0.187500000000   0.562500000000   
Si  0.875000000000   0.000000000000   0.625000000000   
Si  0.812500000000   0.062500000000   0.812500000000   
Si  0.750000000000   0.125000000000   0.875000000000   
Si  0.812500000000   0.187500000000   0.937500000000   
Si  0.750000000000   0.000000000000   0.750000000000   
Si  0.937500000000   0.062500000000   0.937500000000   
Si  0.875000000000   0.125000000000   0.750000000000   
Si  0.937500000000   0.187500000000   0.812500000000   
Si  0.875000000000   0.000000000000   0.875000000000   
Si  0.812500000000   0.312500000000   0.062500000000   
Si  0.750000000000   0.375000000000   0.125000000000   
Si  0.812500000000   0.437500000000   0.187500000000   
Si  0.750000000000   0.250000000000   0.000000000000   
Si  0.937500000000   0.312500000000   0.187500000000   
Si  0.875000000000   0.375000000000   0.000000000000   
Si  0.937500000000   0.437500000000   0.062500000000   
Si  0.875000000000   0.250000000000   0.125000000000   
Si  0.812500000000   0.312500000000   0.312500000000   
Si  0.750000000000   0.375000000000   0.375000000000   
Si  0.812500000000   0.437500000000   0.437500000000   
Si  0.750000000000   0.250000000000   0.250000000000   
Si  0.937500000000   0.312500000000   0.437500000000   
Si  0.875000000000   0.375000000000   0.250000000000   
Si  0.937500000000   0.437500000000   0.312500000000   
Si  0.875000000000   0.250000000000   0.375000000000   
Si  0.812500000000   0.312500000000   0.562500000000   
Si  0.750000000000   0.375000000000   0.625000000000   
Si  0.812500000000   0.437500000000   0.687500000000   
Si  0.750000000000   0.250000000000   0.500000000000   
Si  0.937500000000   0.312500000000   0.687500000000   
Si  0.875000000000   0.375000000000   0.500000000000   
Si  0.937500000000   0.437500000000   0.562500000000   
Si  0.875000000000   0.250000000000   0.625000000000   
Si  0.812500000000   0.312500000000   0.812500000000   
Si  0.750000000000   0.375000000000   0.875000000000   
Si  0.812500000000   0.437500000000   0.937500000000   
Si  0.750000000000   0.250000000000   0.750000000000   
Si  0.937500000000   0.312500000000   0.937500000000   
Si  0.875000000000   0.375000000000   0.750000000000   
Si  0.937500000000   0.437500000000   0.812500000000   
Si  0.875000000000   0.250000000000   0.875000000000   
Si  0.812500000000   0.562500000000   0.062500000000   
Si  0.750000000000   0.625000000000   0.125000000000   
Si  0.812500000000   0.687500000000   0.187500000000   
Si  0.750000000000   0.500000000000   0.000000000000   
Si  0.937500000000   0.562500000000   0.187500000000   
Si  0.875000000000   0.625000000000   0.000000000000   
Si  0.937500000000   0.687500000000   0.062500000000   
Si  0.875000000000   0.500000000000   0.125000000000   
Si  0.812500000000   0.562500000000   0.312500000000   
Si  0.750000000000   0.625000000000   0.375000000000   
Si  0.812500000000   0.687500000000   0.437500000000   
Si  0.750000000000   0.500000000000   0.250000000000   
Si  0.937500000000   0.562500000000   0.437500000000   
Si  0.875000000000   0.625000000000   0.250000000000   
Si  0.937500000000   0.687500000000   0.312500000000   
Si  0.875000000000   0.500000000000   0.375000000000   
Si  0.812500000000   0.562500000000   0.562500000000   
Si  0.750000000000   0.625000000000   0.625000000000   
Si  0.812500000000   0.687500000000   0.687500000000   
Si  0.750000000000   0.500000000000   0.500000000000   
Si  0.937500000000   0.562500000000   0.687500000000   
Si  0.875000000000   0.625000000000   0.500000000000   
Si  0.937500000000   0.687500000000   0.562500000000   
Si  0.875000000000   0.500000000000   0.625000000000   
Si  0.812500000000   0.562500000000   0.812500000000   
Si  0.750000000000   0.625000000000   0.875000000000   
Si  0.812500000000   0.687500000000   0.937500000000   
Si  0.750000000000   0.500000000000   0.750000000000   
Si  0.937500000000   0.562500000000   0.937500000000   
Si  0.875000000000   0.625000000000   0.750000000000   
Si  0.937500000000   0.687500000000   0.812500000000   
Si  0.875000000000   0.500000000000   0.875000000000   
Si  0.812500000000   0.812500000000   0.062500000000   
Si  0.750000000000   0.875000000000   0.125000000000   
Si  0.812500000000   0.937500000000   0.187500000000   
Si  0.750000000000   0.750000000000   0.000000000000   
Si  0.937500000000   0.812500000000   0.187500000000   
Si  0.875000000000   0.875000000000   0.000000000000   
Si  0.937500000000   0.937500000000   0.062500000000   
Si  0.875000000000   0.750000000000   0.125000000000   
Si  0.812500000000   0.812500000000   0.312500000000   
Si  0.750000000000   0.875000000000   0.375000000000   
Si  0.812500000000   0.937500000000   0.437500000000   
Si  0.750000000000   0.750000000000   0.250000000000   
Si  0.937500000000   0.812500000000   0.437500000000   
Si  0.875000000000   0.875000000000   0.250000000000   
Si  0.937500000000   0.937500000000   0.312500000000   
Si  0.875000000000   0.750000000000   0.375000000000   
Si  0.812500000000   0.812500000000   0.562500000000   
Si  0.750000000000   0.875000000000   0.625000000000   
Si  0.812500000000   0.937500000000   0.687500000000   
Si  0.750000000000   0.750000000000   0.500000000000   
Si  0.937500000000   0.812500000000   0.687500000000   
Si  0.875000000000   0.875000000000   0.500000000000   
Si  0.937500000000   0.937500000000   0.562500000000   
Si  0.875000000000   0.750000000000   0.625000000000   
Si  0.812500000000   0.812500000000   0.812500000000   
Si  0.750000000000   0.875000000000   0.875000000000   
Si  0.812500000000   0.937500000000   0.937500000000   
Si  0.750000000000   0.750000000000   0.750000000000   
Si  0.937500000000   0.812500000000   0.937500000000   
Si  0.875000000000   0.875000000000   0.750000000000   
Si  0.937500000000   0.937500000000   0.812500000000   
Si  0.875000000000   0.750000000000   0.875000000000   

K_POINTS gamma
