Si8 -> Species: Si
   1.0000000000000000     
   21.878180000000000        0.0000000000000000        0.0000000000000000     
   0.0000000000000000        21.878180000000000        0.0000000000000000     
   0.0000000000000000        0.0000000000000000        21.878180000000000     
Si
         512
Selective dynamics
Direct
  0.062500000000   0.062500000000   0.062500000000   T T T 
  0.000000000000   0.125000000000   0.125000000000   T T T 
  0.062500000000   0.187500000000   0.187500000000   T T T 
  0.000000000000   0.000000000000   0.000000000000   T T T 
  0.187500000000   0.062500000000   0.187500000000   T T T 
  0.125000000000   0.125000000000   0.000000000000   T T T 
  0.187500000000   0.187500000000   0.062500000000   T T T 
  0.125000000000   0.000000000000   0.125000000000   T T T 
  0.062500000000   0.062500000000   0.312500000000   T T T 
  0.000000000000   0.125000000000   0.375000000000   T T T 
  0.062500000000   0.187500000000   0.437500000000   T T T 
  0.000000000000   0.000000000000   0.250000000000   T T T 
  0.187500000000   0.062500000000   0.437500000000   T T T 
  0.125000000000   0.125000000000   0.250000000000   T T T 
  0.187500000000   0.187500000000   0.312500000000   T T T 
  0.125000000000   0.000000000000   0.375000000000   T T T 
  0.062500000000   0.062500000000   0.562500000000   T T T 
  0.000000000000   0.125000000000   0.625000000000   T T T 
  0.062500000000   0.187500000000   0.687500000000   T T T 
  0.000000000000   0.000000000000   0.500000000000   T T T 
  0.187500000000   0.062500000000   0.687500000000   T T T 
  0.125000000000   0.125000000000   0.500000000000   T T T 
  0.187500000000   0.187500000000   0.562500000000   T T T 
  0.125000000000   0.000000000000   0.625000000000   T T T 
  0.062500000000   0.062500000000   0.812500000000   T T T 
  0.000000000000   0.125000000000   0.875000000000   T T T 
  0.062500000000   0.187500000000   0.937500000000   T T T 
  0.000000000000   0.000000000000   0.750000000000   T T T 
  0.187500000000   0.062500000000   0.937500000000   T T T 
  0.125000000000   0.125000000000   0.750000000000   T T T 
  0.187500000000   0.187500000000   0.812500000000   T T T 
  0.125000000000   0.000000000000   0.875000000000   T T T 
  0.062500000000   0.312500000000   0.062500000000   T T T 
  0.000000000000   0.375000000000   0.125000000000   T T T 
  0.062500000000   0.437500000000   0.187500000000   T T T 
  0.000000000000   0.250000000000   0.000000000000   T T T 
  0.187500000000   0.312500000000   0.187500000000   T T T 
  0.125000000000   0.375000000000   0.000000000000   T T T 
  0.187500000000   0.437500000000   0.062500000000   T T T 
  0.125000000000   0.250000000000   0.125000000000   T T T 
  0.062500000000   0.312500000000   0.312500000000   T T T 
  0.000000000000   0.375000000000   0.375000000000   T T T 
  0.062500000000   0.437500000000   0.437500000000   T T T 
  0.000000000000   0.250000000000   0.250000000000   T T T 
  0.187500000000   0.312500000000   0.437500000000   T T T 
  0.125000000000   0.375000000000   0.250000000000   T T T 
  0.187500000000   0.437500000000   0.312500000000   T T T 
  0.125000000000   0.250000000000   0.375000000000   T T T 
  0.062500000000   0.312500000000   0.562500000000   T T T 
  0.000000000000   0.375000000000   0.625000000000   T T T 
  0.062500000000   0.437500000000   0.687500000000   T T T 
  0.000000000000   0.250000000000   0.500000000000   T T T 
  0.187500000000   0.312500000000   0.687500000000   T T T 
  0.125000000000   0.375000000000   0.500000000000   T T T 
  0.187500000000   0.437500000000   0.562500000000   T T T 
  0.125000000000   0.250000000000   0.625000000000   T T T 
  0.062500000000   0.312500000000   0.812500000000   T T T 
  0.000000000000   0.375000000000   0.875000000000   T T T 
  0.062500000000   0.437500000000   0.937500000000   T T T 
  0.000000000000   0.250000000000   0.750000000000   T T T 
  0.187500000000   0.312500000000   0.937500000000   T T T 
  0.125000000000   0.375000000000   0.750000000000   T T T 
  0.187500000000   0.437500000000   0.812500000000   T T T 
  0.125000000000   0.250000000000   0.875000000000   T T T 
  0.062500000000   0.562500000000   0.062500000000   T T T 
  0.000000000000   0.625000000000   0.125000000000   T T T 
  0.062500000000   0.687500000000   0.187500000000   T T T 
  0.000000000000   0.500000000000   0.000000000000   T T T 
  0.187500000000   0.562500000000   0.187500000000   T T T 
  0.125000000000   0.625000000000   0.000000000000   T T T 
  0.187500000000   0.687500000000   0.062500000000   T T T 
  0.125000000000   0.500000000000   0.125000000000   T T T 
  0.062500000000   0.562500000000   0.312500000000   T T T 
  0.000000000000   0.625000000000   0.375000000000   T T T 
  0.062500000000   0.687500000000   0.437500000000   T T T 
  0.000000000000   0.500000000000   0.250000000000   T T T 
  0.187500000000   0.562500000000   0.437500000000   T T T 
  0.125000000000   0.625000000000   0.250000000000   T T T 
  0.187500000000   0.687500000000   0.312500000000   T T T 
  0.125000000000   0.500000000000   0.375000000000   T T T 
  0.062500000000   0.562500000000   0.562500000000   T T T 
  0.000000000000   0.625000000000   0.625000000000   T T T 
  0.062500000000   0.687500000000   0.687500000000   T T T 
  0.000000000000   0.500000000000   0.500000000000   T T T 
  0.187500000000   0.562500000000   0.687500000000   T T T 
  0.125000000000   0.625000000000   0.500000000000   T T T 
  0.187500000000   0.687500000000   0.562500000000   T T T 
  0.125000000000   0.500000000000   0.625000000000   T T T 
  0.062500000000   0.562500000000   0.812500000000   T T T 
  0.000000000000   0.625000000000   0.875000000000   T T T 
  0.062500000000   0.687500000000   0.937500000000   T T T 
  0.000000000000   0.500000000000   0.750000000000   T T T 
  0.187500000000   0.562500000000   0.937500000000   T T T 
  0.125000000000   0.625000000000   0.750000000000   T T T 
  0.187500000000   0.687500000000   0.812500000000   T T T 
  0.125000000000   0.500000000000   0.875000000000   T T T 
  0.062500000000   0.812500000000   0.062500000000   T T T 
  0.000000000000   0.875000000000   0.125000000000   T T T 
  0.062500000000   0.937500000000   0.187500000000   T T T 
  0.000000000000   0.750000000000   0.000000000000   T T T 
  0.187500000000   0.812500000000   0.187500000000   T T T 
  0.125000000000   0.875000000000   0.000000000000   T T T 
  0.187500000000   0.937500000000   0.062500000000   T T T 
  0.125000000000   0.750000000000   0.125000000000   T T T 
  0.062500000000   0.812500000000   0.312500000000   T T T 
  0.000000000000   0.875000000000   0.375000000000   T T T 
  0.062500000000   0.937500000000   0.437500000000   T T T 
  0.000000000000   0.750000000000   0.250000000000   T T T 
  0.187500000000   0.812500000000   0.437500000000   T T T 
  0.125000000000   0.875000000000   0.250000000000   T T T 
  0.187500000000   0.937500000000   0.312500000000   T T T 
  0.125000000000   0.750000000000   0.375000000000   T T T 
  0.062500000000   0.812500000000   0.562500000000   T T T 
  0.000000000000   0.875000000000   0.625000000000   T T T 
  0.062500000000   0.937500000000   0.687500000000   T T T 
  0.000000000000   0.750000000000   0.500000000000   T T T 
  0.187500000000   0.812500000000   0.687500000000   T T T 
  0.125000000000   0.875000000000   0.500000000000   T T T 
  0.187500000000   0.937500000000   0.562500000000   T T T 
  0.125000000000   0.750000000000   0.625000000000   T T T 
  0.062500000000   0.812500000000   0.812500000000   T T T 
  0.000000000000   0.875000000000   0.875000000000   T T T 
  0.062500000000   0.937500000000   0.937500000000   T T T 
  0.000000000000   0.750000000000   0.750000000000   T T T 
  0.187500000000   0.812500000000   0.937500000000   T T T 
  0.125000000000   0.875000000000   0.750000000000   T T T 
  0.187500000000   0.937500000000   0.812500000000   T T T 
  0.125000000000   0.750000000000   0.875000000000   T T T 
  0.312500000000   0.062500000000   0.062500000000   T T T 
  0.250000000000   0.125000000000   0.125000000000   T T T 
  0.312500000000   0.187500000000   0.187500000000   T T T 
  0.250000000000   0.000000000000   0.000000000000   T T T 
  0.437500000000   0.062500000000   0.187500000000   T T T 
  0.375000000000   0.125000000000   0.000000000000   T T T 
  0.437500000000   0.187500000000   0.062500000000   T T T 
  0.375000000000   0.000000000000   0.125000000000   T T T 
  0.312500000000   0.062500000000   0.312500000000   T T T 
  0.250000000000   0.125000000000   0.375000000000   T T T 
  0.312500000000   0.187500000000   0.437500000000   T T T 
  0.250000000000   0.000000000000   0.250000000000   T T T 
  0.437500000000   0.062500000000   0.437500000000   T T T 
  0.375000000000   0.125000000000   0.250000000000   T T T 
  0.437500000000   0.187500000000   0.312500000000   T T T 
  0.375000000000   0.000000000000   0.375000000000   T T T 
  0.312500000000   0.062500000000   0.562500000000   T T T 
  0.250000000000   0.125000000000   0.625000000000   T T T 
  0.312500000000   0.187500000000   0.687500000000   T T T 
  0.250000000000   0.000000000000   0.500000000000   T T T 
  0.437500000000   0.062500000000   0.687500000000   T T T 
  0.375000000000   0.125000000000   0.500000000000   T T T 
  0.437500000000   0.187500000000   0.562500000000   T T T 
  0.375000000000   0.000000000000   0.625000000000   T T T 
  0.312500000000   0.062500000000   0.812500000000   T T T 
  0.250000000000   0.125000000000   0.875000000000   T T T 
  0.312500000000   0.187500000000   0.937500000000   T T T 
  0.250000000000   0.000000000000   0.750000000000   T T T 
  0.437500000000   0.062500000000   0.937500000000   T T T 
  0.375000000000   0.125000000000   0.750000000000   T T T 
  0.437500000000   0.187500000000   0.812500000000   T T T 
  0.375000000000   0.000000000000   0.875000000000   T T T 
  0.312500000000   0.312500000000   0.062500000000   T T T 
  0.250000000000   0.375000000000   0.125000000000   T T T 
  0.312500000000   0.437500000000   0.187500000000   T T T 
  0.250000000000   0.250000000000   0.000000000000   T T T 
  0.437500000000   0.312500000000   0.187500000000   T T T 
  0.375000000000   0.375000000000   0.000000000000   T T T 
  0.437500000000   0.437500000000   0.062500000000   T T T 
  0.375000000000   0.250000000000   0.125000000000   T T T 
  0.312500000000   0.312500000000   0.312500000000   T T T 
  0.250000000000   0.375000000000   0.375000000000   T T T 
  0.312500000000   0.437500000000   0.437500000000   T T T 
  0.250000000000   0.250000000000   0.250000000000   T T T 
  0.437500000000   0.312500000000   0.437500000000   T T T 
  0.375000000000   0.375000000000   0.250000000000   T T T 
  0.437500000000   0.437500000000   0.312500000000   T T T 
  0.375000000000   0.250000000000   0.375000000000   T T T 
  0.312500000000   0.312500000000   0.562500000000   T T T 
  0.250000000000   0.375000000000   0.625000000000   T T T 
  0.312500000000   0.437500000000   0.687500000000   T T T 
  0.250000000000   0.250000000000   0.500000000000   T T T 
  0.437500000000   0.312500000000   0.687500000000   T T T 
  0.375000000000   0.375000000000   0.500000000000   T T T 
  0.437500000000   0.437500000000   0.562500000000   T T T 
  0.375000000000   0.250000000000   0.625000000000   T T T 
  0.312500000000   0.312500000000   0.812500000000   T T T 
  0.250000000000   0.375000000000   0.875000000000   T T T 
  0.312500000000   0.437500000000   0.937500000000   T T T 
  0.250000000000   0.250000000000   0.750000000000   T T T 
  0.437500000000   0.312500000000   0.937500000000   T T T 
  0.375000000000   0.375000000000   0.750000000000   T T T 
  0.437500000000   0.437500000000   0.812500000000   T T T 
  0.375000000000   0.250000000000   0.875000000000   T T T 
  0.312500000000   0.562500000000   0.062500000000   T T T 
  0.250000000000   0.625000000000   0.125000000000   T T T 
  0.312500000000   0.687500000000   0.187500000000   T T T 
  0.250000000000   0.500000000000   0.000000000000   T T T 
  0.437500000000   0.562500000000   0.187500000000   T T T 
  0.375000000000   0.625000000000   0.000000000000   T T T 
  0.437500000000   0.687500000000   0.062500000000   T T T 
  0.375000000000   0.500000000000   0.125000000000   T T T 
  0.312500000000   0.562500000000   0.312500000000   T T T 
  0.250000000000   0.625000000000   0.375000000000   T T T 
  0.312500000000   0.687500000000   0.437500000000   T T T 
  0.250000000000   0.500000000000   0.250000000000   T T T 
  0.437500000000   0.562500000000   0.437500000000   T T T 
  0.375000000000   0.625000000000   0.250000000000   T T T 
  0.437500000000   0.687500000000   0.312500000000   T T T 
  0.375000000000   0.500000000000   0.375000000000   T T T 
  0.312500000000   0.562500000000   0.562500000000   T T T 
  0.250000000000   0.625000000000   0.625000000000   T T T 
  0.312500000000   0.687500000000   0.687500000000   T T T 
  0.250000000000   0.500000000000   0.500000000000   T T T 
  0.437500000000   0.562500000000   0.687500000000   T T T 
  0.375000000000   0.625000000000   0.500000000000   T T T 
  0.437500000000   0.687500000000   0.562500000000   T T T 
  0.375000000000   0.500000000000   0.625000000000   T T T 
  0.312500000000   0.562500000000   0.812500000000   T T T 
  0.250000000000   0.625000000000   0.875000000000   T T T 
  0.312500000000   0.687500000000   0.937500000000   T T T 
  0.250000000000   0.500000000000   0.750000000000   T T T 
  0.437500000000   0.562500000000   0.937500000000   T T T 
  0.375000000000   0.625000000000   0.750000000000   T T T 
  0.437500000000   0.687500000000   0.812500000000   T T T 
  0.375000000000   0.500000000000   0.875000000000   T T T 
  0.312500000000   0.812500000000   0.062500000000   T T T 
  0.250000000000   0.875000000000   0.125000000000   T T T 
  0.312500000000   0.937500000000   0.187500000000   T T T 
  0.250000000000   0.750000000000   0.000000000000   T T T 
  0.437500000000   0.812500000000   0.187500000000   T T T 
  0.375000000000   0.875000000000   0.000000000000   T T T 
  0.437500000000   0.937500000000   0.062500000000   T T T 
  0.375000000000   0.750000000000   0.125000000000   T T T 
  0.312500000000   0.812500000000   0.312500000000   T T T 
  0.250000000000   0.875000000000   0.375000000000   T T T 
  0.312500000000   0.937500000000   0.437500000000   T T T 
  0.250000000000   0.750000000000   0.250000000000   T T T 
  0.437500000000   0.812500000000   0.437500000000   T T T 
  0.375000000000   0.875000000000   0.250000000000   T T T 
  0.437500000000   0.937500000000   0.312500000000   T T T 
  0.375000000000   0.750000000000   0.375000000000   T T T 
  0.312500000000   0.812500000000   0.562500000000   T T T 
  0.250000000000   0.875000000000   0.625000000000   T T T 
  0.312500000000   0.937500000000   0.687500000000   T T T 
  0.250000000000   0.750000000000   0.500000000000   T T T 
  0.437500000000   0.812500000000   0.687500000000   T T T 
  0.375000000000   0.875000000000   0.500000000000   T T T 
  0.437500000000   0.937500000000   0.562500000000   T T T 
  0.375000000000   0.750000000000   0.625000000000   T T T 
  0.312500000000   0.812500000000   0.812500000000   T T T 
  0.250000000000   0.875000000000   0.875000000000   T T T 
  0.312500000000   0.937500000000   0.937500000000   T T T 
  0.250000000000   0.750000000000   0.750000000000   T T T 
  0.437500000000   0.812500000000   0.937500000000   T T T 
  0.375000000000   0.875000000000   0.750000000000   T T T 
  0.437500000000   0.937500000000   0.812500000000   T T T 
  0.375000000000   0.750000000000   0.875000000000   T T T 
  0.562500000000   0.062500000000   0.062500000000   T T T 
  0.500000000000   0.125000000000   0.125000000000   T T T 
  0.562500000000   0.187500000000   0.187500000000   T T T 
  0.500000000000   0.000000000000   0.000000000000   T T T 
  0.687500000000   0.062500000000   0.187500000000   T T T 
  0.625000000000   0.125000000000   0.000000000000   T T T 
  0.687500000000   0.187500000000   0.062500000000   T T T 
  0.625000000000   0.000000000000   0.125000000000   T T T 
  0.562500000000   0.062500000000   0.312500000000   T T T 
  0.500000000000   0.125000000000   0.375000000000   T T T 
  0.562500000000   0.187500000000   0.437500000000   T T T 
  0.500000000000   0.000000000000   0.250000000000   T T T 
  0.687500000000   0.062500000000   0.437500000000   T T T 
  0.625000000000   0.125000000000   0.250000000000   T T T 
  0.687500000000   0.187500000000   0.312500000000   T T T 
  0.625000000000   0.000000000000   0.375000000000   T T T 
  0.562500000000   0.062500000000   0.562500000000   T T T 
  0.500000000000   0.125000000000   0.625000000000   T T T 
  0.562500000000   0.187500000000   0.687500000000   T T T 
  0.500000000000   0.000000000000   0.500000000000   T T T 
  0.687500000000   0.062500000000   0.687500000000   T T T 
  0.625000000000   0.125000000000   0.500000000000   T T T 
  0.687500000000   0.187500000000   0.562500000000   T T T 
  0.625000000000   0.000000000000   0.625000000000   T T T 
  0.562500000000   0.062500000000   0.812500000000   T T T 
  0.500000000000   0.125000000000   0.875000000000   T T T 
  0.562500000000   0.187500000000   0.937500000000   T T T 
  0.500000000000   0.000000000000   0.750000000000   T T T 
  0.687500000000   0.062500000000   0.937500000000   T T T 
  0.625000000000   0.125000000000   0.750000000000   T T T 
  0.687500000000   0.187500000000   0.812500000000   T T T 
  0.625000000000   0.000000000000   0.875000000000   T T T 
  0.562500000000   0.312500000000   0.062500000000   T T T 
  0.500000000000   0.375000000000   0.125000000000   T T T 
  0.562500000000   0.437500000000   0.187500000000   T T T 
  0.500000000000   0.250000000000   0.000000000000   T T T 
  0.687500000000   0.312500000000   0.187500000000   T T T 
  0.625000000000   0.375000000000   0.000000000000   T T T 
  0.687500000000   0.437500000000   0.062500000000   T T T 
  0.625000000000   0.250000000000   0.125000000000   T T T 
  0.562500000000   0.312500000000   0.312500000000   T T T 
  0.500000000000   0.375000000000   0.375000000000   T T T 
  0.562500000000   0.437500000000   0.437500000000   T T T 
  0.500000000000   0.250000000000   0.250000000000   T T T 
  0.687500000000   0.312500000000   0.437500000000   T T T 
  0.625000000000   0.375000000000   0.250000000000   T T T 
  0.687500000000   0.437500000000   0.312500000000   T T T 
  0.625000000000   0.250000000000   0.375000000000   T T T 
  0.562500000000   0.312500000000   0.562500000000   T T T 
  0.500000000000   0.375000000000   0.625000000000   T T T 
  0.562500000000   0.437500000000   0.687500000000   T T T 
  0.500000000000   0.250000000000   0.500000000000   T T T 
  0.687500000000   0.312500000000   0.687500000000   T T T 
  0.625000000000   0.375000000000   0.500000000000   T T T 
  0.687500000000   0.437500000000   0.562500000000   T T T 
  0.625000000000   0.250000000000   0.625000000000   T T T 
  0.562500000000   0.312500000000   0.812500000000   T T T 
  0.500000000000   0.375000000000   0.875000000000   T T T 
  0.562500000000   0.437500000000   0.937500000000   T T T 
  0.500000000000   0.250000000000   0.750000000000   T T T 
  0.687500000000   0.312500000000   0.937500000000   T T T 
  0.625000000000   0.375000000000   0.750000000000   T T T 
  0.687500000000   0.437500000000   0.812500000000   T T T 
  0.625000000000   0.250000000000   0.875000000000   T T T 
  0.562500000000   0.562500000000   0.062500000000   T T T 
  0.500000000000   0.625000000000   0.125000000000   T T T 
  0.562500000000   0.687500000000   0.187500000000   T T T 
  0.500000000000   0.500000000000   0.000000000000   T T T 
  0.687500000000   0.562500000000   0.187500000000   T T T 
  0.625000000000   0.625000000000   0.000000000000   T T T 
  0.687500000000   0.687500000000   0.062500000000   T T T 
  0.625000000000   0.500000000000   0.125000000000   T T T 
  0.562500000000   0.562500000000   0.312500000000   T T T 
  0.500000000000   0.625000000000   0.375000000000   T T T 
  0.562500000000   0.687500000000   0.437500000000   T T T 
  0.500000000000   0.500000000000   0.250000000000   T T T 
  0.687500000000   0.562500000000   0.437500000000   T T T 
  0.625000000000   0.625000000000   0.250000000000   T T T 
  0.687500000000   0.687500000000   0.312500000000   T T T 
  0.625000000000   0.500000000000   0.375000000000   T T T 
  0.562500000000   0.562500000000   0.562500000000   T T T 
  0.500000000000   0.625000000000   0.625000000000   T T T 
  0.562500000000   0.687500000000   0.687500000000   T T T 
  0.500000000000   0.500000000000   0.500000000000   T T T 
  0.687500000000   0.562500000000   0.687500000000   T T T 
  0.625000000000   0.625000000000   0.500000000000   T T T 
  0.687500000000   0.687500000000   0.562500000000   T T T 
  0.625000000000   0.500000000000   0.625000000000   T T T 
  0.562500000000   0.562500000000   0.812500000000   T T T 
  0.500000000000   0.625000000000   0.875000000000   T T T 
  0.562500000000   0.687500000000   0.937500000000   T T T 
  0.500000000000   0.500000000000   0.750000000000   T T T 
  0.687500000000   0.562500000000   0.937500000000   T T T 
  0.625000000000   0.625000000000   0.750000000000   T T T 
  0.687500000000   0.687500000000   0.812500000000   T T T 
  0.625000000000   0.500000000000   0.875000000000   T T T 
  0.562500000000   0.812500000000   0.062500000000   T T T 
  0.500000000000   0.875000000000   0.125000000000   T T T 
  0.562500000000   0.937500000000   0.187500000000   T T T 
  0.500000000000   0.750000000000   0.000000000000   T T T 
  0.687500000000   0.812500000000   0.187500000000   T T T 
  0.625000000000   0.875000000000   0.000000000000   T T T 
  0.687500000000   0.937500000000   0.062500000000   T T T 
  0.625000000000   0.750000000000   0.125000000000   T T T 
  0.562500000000   0.812500000000   0.312500000000   T T T 
  0.500000000000   0.875000000000   0.375000000000   T T T 
  0.562500000000   0.937500000000   0.437500000000   T T T 
  0.500000000000   0.750000000000   0.250000000000   T T T 
  0.687500000000   0.812500000000   0.437500000000   T T T 
  0.625000000000   0.875000000000   0.250000000000   T T T 
  0.687500000000   0.937500000000   0.312500000000   T T T 
  0.625000000000   0.750000000000   0.375000000000   T T T 
  0.562500000000   0.812500000000   0.562500000000   T T T 
  0.500000000000   0.875000000000   0.625000000000   T T T 
  0.562500000000   0.937500000000   0.687500000000   T T T 
  0.500000000000   0.750000000000   0.500000000000   T T T 
  0.687500000000   0.812500000000   0.687500000000   T T T 
  0.625000000000   0.875000000000   0.500000000000   T T T 
  0.687500000000   0.937500000000   0.562500000000   T T T 
  0.625000000000   0.750000000000   0.625000000000   T T T 
  0.562500000000   0.812500000000   0.812500000000   T T T 
  0.500000000000   0.875000000000   0.875000000000   T T T 
  0.562500000000   0.937500000000   0.937500000000   T T T 
  0.500000000000   0.750000000000   0.750000000000   T T T 
  0.687500000000   0.812500000000   0.937500000000   T T T 
  0.625000000000   0.875000000000   0.750000000000   T T T 
  0.687500000000   0.937500000000   0.812500000000   T T T 
  0.625000000000   0.750000000000   0.875000000000   T T T 
  0.812500000000   0.062500000000   0.062500000000   T T T 
  0.750000000000   0.125000000000   0.125000000000   T T T 
  0.812500000000   0.187500000000   0.187500000000   T T T 
  0.750000000000   0.000000000000   0.000000000000   T T T 
  0.937500000000   0.062500000000   0.187500000000   T T T 
  0.875000000000   0.125000000000   0.000000000000   T T T 
  0.937500000000   0.187500000000   0.062500000000   T T T 
  0.875000000000   0.000000000000   0.125000000000   T T T 
  0.812500000000   0.062500000000   0.312500000000   T T T 
  0.750000000000   0.125000000000   0.375000000000   T T T 
  0.812500000000   0.187500000000   0.437500000000   T T T 
  0.750000000000   0.000000000000   0.250000000000   T T T 
  0.937500000000   0.062500000000   0.437500000000   T T T 
  0.875000000000   0.125000000000   0.250000000000   T T T 
  0.937500000000   0.187500000000   0.312500000000   T T T 
  0.875000000000   0.000000000000   0.375000000000   T T T 
  0.812500000000   0.062500000000   0.562500000000   T T T 
  0.750000000000   0.125000000000   0.625000000000   T T T 
  0.812500000000   0.187500000000   0.687500000000   T T T 
  0.750000000000   0.000000000000   0.500000000000   T T T 
  0.937500000000   0.062500000000   0.687500000000   T T T 
  0.875000000000   0.125000000000   0.500000000000   T T T 
  0.937500000000   0.187500000000   0.562500000000   T T T 
  0.875000000000   0.000000000000   0.625000000000   T T T 
  0.812500000000   0.062500000000   0.812500000000   T T T 
  0.750000000000   0.125000000000   0.875000000000   T T T 
  0.812500000000   0.187500000000   0.937500000000   T T T 
  0.750000000000   0.000000000000   0.750000000000   T T T 
  0.937500000000   0.062500000000   0.937500000000   T T T 
  0.875000000000   0.125000000000   0.750000000000   T T T 
  0.937500000000   0.187500000000   0.812500000000   T T T 
  0.875000000000   0.000000000000   0.875000000000   T T T 
  0.812500000000   0.312500000000   0.062500000000   T T T 
  0.750000000000   0.375000000000   0.125000000000   T T T 
  0.812500000000   0.437500000000   0.187500000000   T T T 
  0.750000000000   0.250000000000   0.000000000000   T T T 
  0.937500000000   0.312500000000   0.187500000000   T T T 
  0.875000000000   0.375000000000   0.000000000000   T T T 
  0.937500000000   0.437500000000   0.062500000000   T T T 
  0.875000000000   0.250000000000   0.125000000000   T T T 
  0.812500000000   0.312500000000   0.312500000000   T T T 
  0.750000000000   0.375000000000   0.375000000000   T T T 
  0.812500000000   0.437500000000   0.437500000000   T T T 
  0.750000000000   0.250000000000   0.250000000000   T T T 
  0.937500000000   0.312500000000   0.437500000000   T T T 
  0.875000000000   0.375000000000   0.250000000000   T T T 
  0.937500000000   0.437500000000   0.312500000000   T T T 
  0.875000000000   0.250000000000   0.375000000000   T T T 
  0.812500000000   0.312500000000   0.562500000000   T T T 
  0.750000000000   0.375000000000   0.625000000000   T T T 
  0.812500000000   0.437500000000   0.687500000000   T T T 
  0.750000000000   0.250000000000   0.500000000000   T T T 
  0.937500000000   0.312500000000   0.687500000000   T T T 
  0.875000000000   0.375000000000   0.500000000000   T T T 
  0.937500000000   0.437500000000   0.562500000000   T T T 
  0.875000000000   0.250000000000   0.625000000000   T T T 
  0.812500000000   0.312500000000   0.812500000000   T T T 
  0.750000000000   0.375000000000   0.875000000000   T T T 
  0.812500000000   0.437500000000   0.937500000000   T T T 
  0.750000000000   0.250000000000   0.750000000000   T T T 
  0.937500000000   0.312500000000   0.937500000000   T T T 
  0.875000000000   0.375000000000   0.750000000000   T T T 
  0.937500000000   0.437500000000   0.812500000000   T T T 
  0.875000000000   0.250000000000   0.875000000000   T T T 
  0.812500000000   0.562500000000   0.062500000000   T T T 
  0.750000000000   0.625000000000   0.125000000000   T T T 
  0.812500000000   0.687500000000   0.187500000000   T T T 
  0.750000000000   0.500000000000   0.000000000000   T T T 
  0.937500000000   0.562500000000   0.187500000000   T T T 
  0.875000000000   0.625000000000   0.000000000000   T T T 
  0.937500000000   0.687500000000   0.062500000000   T T T 
  0.875000000000   0.500000000000   0.125000000000   T T T 
  0.812500000000   0.562500000000   0.312500000000   T T T 
  0.750000000000   0.625000000000   0.375000000000   T T T 
  0.812500000000   0.687500000000   0.437500000000   T T T 
  0.750000000000   0.500000000000   0.250000000000   T T T 
  0.937500000000   0.562500000000   0.437500000000   T T T 
  0.875000000000   0.625000000000   0.250000000000   T T T 
  0.937500000000   0.687500000000   0.312500000000   T T T 
  0.875000000000   0.500000000000   0.375000000000   T T T 
  0.812500000000   0.562500000000   0.562500000000   T T T 
  0.750000000000   0.625000000000   0.625000000000   T T T 
  0.812500000000   0.687500000000   0.687500000000   T T T 
  0.750000000000   0.500000000000   0.500000000000   T T T 
  0.937500000000   0.562500000000   0.687500000000   T T T 
  0.875000000000   0.625000000000   0.500000000000   T T T 
  0.937500000000   0.687500000000   0.562500000000   T T T 
  0.875000000000   0.500000000000   0.625000000000   T T T 
  0.812500000000   0.562500000000   0.812500000000   T T T 
  0.750000000000   0.625000000000   0.875000000000   T T T 
  0.812500000000   0.687500000000   0.937500000000   T T T 
  0.750000000000   0.500000000000   0.750000000000   T T T 
  0.937500000000   0.562500000000   0.937500000000   T T T 
  0.875000000000   0.625000000000   0.750000000000   T T T 
  0.937500000000   0.687500000000   0.812500000000   T T T 
  0.875000000000   0.500000000000   0.875000000000   T T T 
  0.812500000000   0.812500000000   0.062500000000   T T T 
  0.750000000000   0.875000000000   0.125000000000   T T T 
  0.812500000000   0.937500000000   0.187500000000   T T T 
  0.750000000000   0.750000000000   0.000000000000   T T T 
  0.937500000000   0.812500000000   0.187500000000   T T T 
  0.875000000000   0.875000000000   0.000000000000   T T T 
  0.937500000000   0.937500000000   0.062500000000   T T T 
  0.875000000000   0.750000000000   0.125000000000   T T T 
  0.812500000000   0.812500000000   0.312500000000   T T T 
  0.750000000000   0.875000000000   0.375000000000   T T T 
  0.812500000000   0.937500000000   0.437500000000   T T T 
  0.750000000000   0.750000000000   0.250000000000   T T T 
  0.937500000000   0.812500000000   0.437500000000   T T T 
  0.875000000000   0.875000000000   0.250000000000   T T T 